benchmarks/bfuzz0/860215596219826215245093159169256026.smt2
(set-logic QF_FP)
(declare-const x0 (_ FloatingPoint 11 53))
(declare-const x1 (_ FloatingPoint 11 53))
(declare-const x2 (_ FloatingPoint 11 53))
(declare-const x3 (_ FloatingPoint 11 53))
(declare-const x4 (_ FloatingPoint 11 53))
(declare-const x5 (_ FloatingPoint 11 53))
(declare-const x6 (_ FloatingPoint 11 53))
(declare-const x7 (_ FloatingPoint 11 53))
(declare-const x8 (_ FloatingPoint 11 53))
(declare-const x9 (_ FloatingPoint 11 53))
(declare-const x10 (_ FloatingPoint 11 53))
(declare-const x11 (_ FloatingPoint 11 53))
(declare-const x12 (_ FloatingPoint 11 53))
(declare-const x13 (_ FloatingPoint 11 53))
(declare-const x14 (_ FloatingPoint 11 53))
(declare-const x15 (_ FloatingPoint 11 53))
(declare-const x16 (_ FloatingPoint 11 53))
(declare-const x17 (_ FloatingPoint 11 53))
(declare-const x18 (_ FloatingPoint 11 53))
(assert (fp.geq (fp.mul RNE (fp.mul RNE (fp.sub RNE x8 x16) (fp.mul RNE x1 x14)) (fp.add RNE (fp.mul RNE x4 x0) (fp.sub RNE x6 x9))) (fp.sub RNE (fp.neg (fp.div RNE x13 x13)) (fp.neg (fp.add RNE x5 x12)))))
(assert (fp.geq (fp.mul RNE (fp.add RNE (fp.div RNE x16 x17) (fp.neg x18)) (fp.neg (fp.div RNE x0 x12))) (fp.neg (fp.div RNE (fp.div RNE x4 x5) (fp.sub RNE x8 x5)))))
(assert (fp.leq (fp.neg (fp.mul RNE (fp.sub RNE x0 x6) (fp.mul RNE x7 x4))) (fp.mul RNE (fp.sub RNE (fp.sub RNE x14 x9) (fp.div RNE x18 x0)) (fp.mul RNE (fp.div RNE x6 x16) (fp.mul RNE x17 x15)))))
(assert (fp.lt (fp.sub RNE (fp.add RNE (fp.div RNE x5 x13) (fp.div RNE x16 x7)) (fp.sub RNE (fp.mul RNE x14 x4) (fp.add RNE x4 x14))) (fp.div RNE (fp.neg (fp.add RNE x7 x1)) (fp.sub RNE (fp.sub RNE x13 x7) (fp.add RNE x8 x13)))))
(assert (fp.eq (fp.sub RNE (fp.neg (fp.neg x10)) (fp.neg (fp.neg x3))) (fp.div RNE (fp.mul RNE (fp.sub RNE x2 x8) (fp.mul RNE x1 x16)) (fp.neg (fp.div RNE x1 x8)))))
(assert (fp.eq (fp.div RNE (fp.mul RNE (fp.mul RNE x7 x10) (fp.neg x17)) (fp.mul RNE (fp.add RNE x2 x0) (fp.mul RNE x5 x4))) (fp.sub RNE (fp.sub RNE (fp.mul RNE x12 x14) (fp.sub RNE x2 x9)) (fp.mul RNE (fp.sub RNE x18 x15) (fp.div RNE x16 x18)))))
(check-sat)
