db/data/860215596219826215245093159169256026.z3.out
-------------------
2500.958154639
